1442388
7 11 61690
11 22 132796
22 9 54017
9 16 52694
16 23 276644
23 0 54636
0 19 190821
19 18 59143
18 21 8375
21 25 11584
25 10 13666
10 15 17050
15 13 22658
13 28 53997
28 27 52270
27 3 9482
3 17 7922
17 4 5422
4 12 6994
12 24 1644
24 8 14389
8 1 11091
1 29 6204
29 5 7944
5 14 10550
14 20 19591
20 2 168124
2 6 5029
6 26 7370
26 7 98591
7 7 0
